data;
param n:=100;
param w:=1 241 2 -111 3 -49 4 355 5 -286 6 -441 7 -191 8 377 9 -358 10 212 11 -359 12 -245 13 223 14 -116 15 -191 16 12 17 443 18 486 19 -361 20 -311 21 -248 22 -423 23 17 24 204 25 -388 26 368 27 114 28 162 29 99 30 434 31 352 32 179 33 -310 34 -340 35 -420 36 209 37 1 38 391 39 -215 40 -366 41 -183 42 150 43 -270 44 261 45 417 46 -295 47 -185 48 -48 49 -296 50 174 51 -10 52 -419 53 -436 54 -132 55 281 56 -447 57 229 58 238 59 248 60 -11 61 -293 62 86 63 -258 64 121 65 446 66 -509 67 215 68 456 69 -152 70 411 71 -375 72 -75 73 292 74 276 75 199 76 -269 77 282 78 -318 79 107 80 -163 81 426 82 -225 83 -327 84 239 85 -227 86 477 87 158 88 147 89 300 90 -145 91 329 92 -20 93 -15 94 -501 95 472 96 -324 97 291 98 414 99 -356 100 -8;
